0 470734 
1 468752 
2 466276 
3 465152 
4 464648 
5 461472 
6 461006 
7 457768 
8 457470 
9 457426 
10 456486 
11 456352 
12 455126 
13 452160 
14 451914 
15 450446 
16 447798 
17 447496 
18 446012 
19 445362 
20 442888 
21 441040 
22 438678 
23 436540 
24 436514 
25 436432 
26 436328 
27 436028 
28 435868 
29 434938 
30 433792 
31 432250 
32 428904 
33 428542 
34 425000 
35 423574 
36 423092 
37 421330 
38 411314 
39 409820 
40 408050 
41 407870 
42 406122 
43 406106 
44 404132 
45 403994 
46 397208 
47 396192 
48 389076 
49 388952 
50 388936 
51 388868 
52 384096 
53 383458 
54 382780 
55 382140 
56 381268 
57 380784 
58 379448 
59 379238 
60 375374 
61 372906 
62 372070 
63 370170 
64 365966 
65 365966 

